certificates/rado_a10_c58_N21.cnf
c Rad2 upper bound instance: x1 + 10*x2 - x3 = 58, interval [1,21]
p cnf 21 88
1 3 6 0
-1 -3 -6 0
1 7 13 0
-1 -7 -13 0
2 4 6 0
-2 -4 -6 0
2 7 14 0
-2 -7 -14 0
3 5 6 0
-3 -5 -6 0
3 7 15 0
-3 -7 -15 0
4 6 0
-4 -6 0
4 7 16 0
-4 -7 -16 0
5 6 7 0
-5 -6 -7 0
5 7 17 0
-5 -7 -17 0
6 8 0
-6 -8 0
6 7 18 0
-6 -7 -18 0
6 7 9 0
-6 -7 -9 0
7 19 0
-7 -19 0
6 8 10 0
-6 -8 -10 0
7 8 20 0
-7 -8 -20 0
1 5 9 0
-1 -5 -9 0
6 9 11 0
-6 -9 -11 0
7 9 21 0
-7 -9 -21 0
2 5 10 0
-2 -5 -10 0
6 10 12 0
-6 -10 -12 0
3 5 11 0
-3 -5 -11 0
6 11 13 0
-6 -11 -13 0
4 5 12 0
-4 -5 -12 0
6 12 14 0
-6 -12 -14 0
5 13 0
-5 -13 0
6 13 15 0
-6 -13 -15 0
5 6 14 0
-5 -6 -14 0
6 14 16 0
-6 -14 -16 0
5 7 15 0
-5 -7 -15 0
6 15 17 0
-6 -15 -17 0
5 8 16 0
-5 -8 -16 0
6 16 18 0
-6 -16 -18 0
5 9 17 0
-5 -9 -17 0
6 17 19 0
-6 -17 -19 0
5 10 18 0
-5 -10 -18 0
6 18 20 0
-6 -18 -20 0
1 4 19 0
-1 -4 -19 0
5 11 19 0
-5 -11 -19 0
6 19 21 0
-6 -19 -21 0
2 4 20 0
-2 -4 -20 0
5 12 20 0
-5 -12 -20 0
3 4 21 0
-3 -4 -21 0
5 13 21 0
-5 -13 -21 0
