certificates/rado_a10_c58_N21.drat
7 6 0
d 7 9 6 0
-19 -21 0
-6 19 0
-21 0
19 0
-7 0
6 0
9 0
-4 0
-8 0
-17 0
-11 0
3 0
16 0
20 0
5 0
-1 0
0
